\* Sudoku *\
Minimize
OBJ: __dummy
Subject To
_C1: x_0_0_5 = 1
_C10: x_0_5_1 + x_0_5_2 + x_0_5_3 + x_0_5_4 + x_0_5_5 + x_0_5_6 + x_0_5_7
 + x_0_5_8 + x_0_5_9 = 1
_C100: x_0_2_3 + x_1_2_3 + x_2_2_3 + x_3_2_3 + x_4_2_3 + x_5_2_3 + x_6_2_3
 + x_7_2_3 + x_8_2_3 = 1
_C101: x_0_6_3 + x_0_7_3 + x_0_8_3 + x_1_6_3 + x_1_7_3 + x_1_8_3 + x_2_6_3
 + x_2_7_3 + x_2_8_3 = 1
_C102: x_2_0_4 + x_2_1_4 + x_2_2_4 + x_2_3_4 + x_2_4_4 + x_2_5_4 + x_2_6_4
 + x_2_7_4 + x_2_8_4 = 1
_C103: x_0_2_4 + x_1_2_4 + x_2_2_4 + x_3_2_4 + x_4_2_4 + x_5_2_4 + x_6_2_4
 + x_7_2_4 + x_8_2_4 = 1
_C104: x_0_6_4 + x_0_7_4 + x_0_8_4 + x_1_6_4 + x_1_7_4 + x_1_8_4 + x_2_6_4
 + x_2_7_4 + x_2_8_4 = 1
_C105: x_2_0_5 + x_2_1_5 + x_2_2_5 + x_2_3_5 + x_2_4_5 + x_2_5_5 + x_2_6_5
 + x_2_7_5 + x_2_8_5 = 1
_C106: x_0_2_5 + x_1_2_5 + x_2_2_5 + x_3_2_5 + x_4_2_5 + x_5_2_5 + x_6_2_5
 + x_7_2_5 + x_8_2_5 = 1
_C107: x_0_6_5 + x_0_7_5 + x_0_8_5 + x_1_6_5 + x_1_7_5 + x_1_8_5 + x_2_6_5
 + x_2_7_5 + x_2_8_5 = 1
_C108: x_2_0_6 + x_2_1_6 + x_2_2_6 + x_2_3_6 + x_2_4_6 + x_2_5_6 + x_2_6_6
 + x_2_7_6 + x_2_8_6 = 1
_C109: x_0_2_6 + x_1_2_6 + x_2_2_6 + x_3_2_6 + x_4_2_6 + x_5_2_6 + x_6_2_6
 + x_7_2_6 + x_8_2_6 = 1
_C11: x_0_6_1 + x_0_6_2 + x_0_6_3 + x_0_6_4 + x_0_6_5 + x_0_6_6 + x_0_6_7
 + x_0_6_8 + x_0_6_9 = 1
_C110: x_0_6_6 + x_0_7_6 + x_0_8_6 + x_1_6_6 + x_1_7_6 + x_1_8_6 + x_2_6_6
 + x_2_7_6 + x_2_8_6 = 1
_C111: x_2_0_7 + x_2_1_7 + x_2_2_7 + x_2_3_7 + x_2_4_7 + x_2_5_7 + x_2_6_7
 + x_2_7_7 + x_2_8_7 = 1
_C112: x_0_2_7 + x_1_2_7 + x_2_2_7 + x_3_2_7 + x_4_2_7 + x_5_2_7 + x_6_2_7
 + x_7_2_7 + x_8_2_7 = 1
_C113: x_0_6_7 + x_0_7_7 + x_0_8_7 + x_1_6_7 + x_1_7_7 + x_1_8_7 + x_2_6_7
 + x_2_7_7 + x_2_8_7 = 1
_C114: x_2_0_8 + x_2_1_8 + x_2_2_8 + x_2_3_8 + x_2_4_8 + x_2_5_8 + x_2_6_8
 + x_2_7_8 + x_2_8_8 = 1
_C115: x_0_2_8 + x_1_2_8 + x_2_2_8 + x_3_2_8 + x_4_2_8 + x_5_2_8 + x_6_2_8
 + x_7_2_8 + x_8_2_8 = 1
_C116: x_0_6_8 + x_0_7_8 + x_0_8_8 + x_1_6_8 + x_1_7_8 + x_1_8_8 + x_2_6_8
 + x_2_7_8 + x_2_8_8 = 1
_C117: x_2_0_9 + x_2_1_9 + x_2_2_9 + x_2_3_9 + x_2_4_9 + x_2_5_9 + x_2_6_9
 + x_2_7_9 + x_2_8_9 = 1
_C118: x_0_2_9 + x_1_2_9 + x_2_2_9 + x_3_2_9 + x_4_2_9 + x_5_2_9 + x_6_2_9
 + x_7_2_9 + x_8_2_9 = 1
_C119: x_0_6_9 + x_0_7_9 + x_0_8_9 + x_1_6_9 + x_1_7_9 + x_1_8_9 + x_2_6_9
 + x_2_7_9 + x_2_8_9 = 1
_C12: x_0_7_1 + x_0_7_2 + x_0_7_3 + x_0_7_4 + x_0_7_5 + x_0_7_6 + x_0_7_7
 + x_0_7_8 + x_0_7_9 = 1
_C120: x_3_0_8 = 1
_C121: x_3_0_1 + x_3_0_2 + x_3_0_3 + x_3_0_4 + x_3_0_5 + x_3_0_6 + x_3_0_7
 + x_3_0_8 + x_3_0_9 = 1
_C122: x_3_1_1 + x_3_1_2 + x_3_1_3 + x_3_1_4 + x_3_1_5 + x_3_1_6 + x_3_1_7
 + x_3_1_8 + x_3_1_9 = 1
_C123: x_3_2_1 + x_3_2_2 + x_3_2_3 + x_3_2_4 + x_3_2_5 + x_3_2_6 + x_3_2_7
 + x_3_2_8 + x_3_2_9 = 1
_C124: x_3_3_1 + x_3_3_2 + x_3_3_3 + x_3_3_4 + x_3_3_5 + x_3_3_6 + x_3_3_7
 + x_3_3_8 + x_3_3_9 = 1
_C125: x_3_4_6 = 1
_C126: x_3_4_1 + x_3_4_2 + x_3_4_3 + x_3_4_4 + x_3_4_5 + x_3_4_6 + x_3_4_7
 + x_3_4_8 + x_3_4_9 = 1
_C127: x_3_5_1 + x_3_5_2 + x_3_5_3 + x_3_5_4 + x_3_5_5 + x_3_5_6 + x_3_5_7
 + x_3_5_8 + x_3_5_9 = 1
_C128: x_3_6_1 + x_3_6_2 + x_3_6_3 + x_3_6_4 + x_3_6_5 + x_3_6_6 + x_3_6_7
 + x_3_6_8 + x_3_6_9 = 1
_C129: x_3_7_1 + x_3_7_2 + x_3_7_3 + x_3_7_4 + x_3_7_5 + x_3_7_6 + x_3_7_7
 + x_3_7_8 + x_3_7_9 = 1
_C13: x_0_8_1 + x_0_8_2 + x_0_8_3 + x_0_8_4 + x_0_8_5 + x_0_8_6 + x_0_8_7
 + x_0_8_8 + x_0_8_9 = 1
_C130: x_3_8_3 = 1
_C131: x_3_8_1 + x_3_8_2 + x_3_8_3 + x_3_8_4 + x_3_8_5 + x_3_8_6 + x_3_8_7
 + x_3_8_8 + x_3_8_9 = 1
_C132: x_3_0_1 + x_3_1_1 + x_3_2_1 + x_3_3_1 + x_3_4_1 + x_3_5_1 + x_3_6_1
 + x_3_7_1 + x_3_8_1 = 1
_C133: x_0_3_1 + x_1_3_1 + x_2_3_1 + x_3_3_1 + x_4_3_1 + x_5_3_1 + x_6_3_1
 + x_7_3_1 + x_8_3_1 = 1
_C134: x_3_0_1 + x_3_1_1 + x_3_2_1 + x_4_0_1 + x_4_1_1 + x_4_2_1 + x_5_0_1
 + x_5_1_1 + x_5_2_1 = 1
_C135: x_3_0_2 + x_3_1_2 + x_3_2_2 + x_3_3_2 + x_3_4_2 + x_3_5_2 + x_3_6_2
 + x_3_7_2 + x_3_8_2 = 1
_C136: x_0_3_2 + x_1_3_2 + x_2_3_2 + x_3_3_2 + x_4_3_2 + x_5_3_2 + x_6_3_2
 + x_7_3_2 + x_8_3_2 = 1
_C137: x_3_0_2 + x_3_1_2 + x_3_2_2 + x_4_0_2 + x_4_1_2 + x_4_2_2 + x_5_0_2
 + x_5_1_2 + x_5_2_2 = 1
_C138: x_3_0_3 + x_3_1_3 + x_3_2_3 + x_3_3_3 + x_3_4_3 + x_3_5_3 + x_3_6_3
 + x_3_7_3 + x_3_8_3 = 1
_C139: x_0_3_3 + x_1_3_3 + x_2_3_3 + x_3_3_3 + x_4_3_3 + x_5_3_3 + x_6_3_3
 + x_7_3_3 + x_8_3_3 = 1
_C14: x_0_0_1 + x_0_1_1 + x_0_2_1 + x_0_3_1 + x_0_4_1 + x_0_5_1 + x_0_6_1
 + x_0_7_1 + x_0_8_1 = 1
_C140: x_3_0_3 + x_3_1_3 + x_3_2_3 + x_4_0_3 + x_4_1_3 + x_4_2_3 + x_5_0_3
 + x_5_1_3 + x_5_2_3 = 1
_C141: x_3_0_4 + x_3_1_4 + x_3_2_4 + x_3_3_4 + x_3_4_4 + x_3_5_4 + x_3_6_4
 + x_3_7_4 + x_3_8_4 = 1
_C142: x_0_3_4 + x_1_3_4 + x_2_3_4 + x_3_3_4 + x_4_3_4 + x_5_3_4 + x_6_3_4
 + x_7_3_4 + x_8_3_4 = 1
_C143: x_3_0_4 + x_3_1_4 + x_3_2_4 + x_4_0_4 + x_4_1_4 + x_4_2_4 + x_5_0_4
 + x_5_1_4 + x_5_2_4 = 1
_C144: x_3_0_5 + x_3_1_5 + x_3_2_5 + x_3_3_5 + x_3_4_5 + x_3_5_5 + x_3_6_5
 + x_3_7_5 + x_3_8_5 = 1
_C145: x_0_3_5 + x_1_3_5 + x_2_3_5 + x_3_3_5 + x_4_3_5 + x_5_3_5 + x_6_3_5
 + x_7_3_5 + x_8_3_5 = 1
_C146: x_3_0_5 + x_3_1_5 + x_3_2_5 + x_4_0_5 + x_4_1_5 + x_4_2_5 + x_5_0_5
 + x_5_1_5 + x_5_2_5 = 1
_C147: x_3_0_6 + x_3_1_6 + x_3_2_6 + x_3_3_6 + x_3_4_6 + x_3_5_6 + x_3_6_6
 + x_3_7_6 + x_3_8_6 = 1
_C148: x_0_3_6 + x_1_3_6 + x_2_3_6 + x_3_3_6 + x_4_3_6 + x_5_3_6 + x_6_3_6
 + x_7_3_6 + x_8_3_6 = 1
_C149: x_3_0_6 + x_3_1_6 + x_3_2_6 + x_4_0_6 + x_4_1_6 + x_4_2_6 + x_5_0_6
 + x_5_1_6 + x_5_2_6 = 1
_C15: x_0_0_1 + x_1_0_1 + x_2_0_1 + x_3_0_1 + x_4_0_1 + x_5_0_1 + x_6_0_1
 + x_7_0_1 + x_8_0_1 = 1
_C150: x_3_0_7 + x_3_1_7 + x_3_2_7 + x_3_3_7 + x_3_4_7 + x_3_5_7 + x_3_6_7
 + x_3_7_7 + x_3_8_7 = 1
_C151: x_0_3_7 + x_1_3_7 + x_2_3_7 + x_3_3_7 + x_4_3_7 + x_5_3_7 + x_6_3_7
 + x_7_3_7 + x_8_3_7 = 1
_C152: x_3_0_7 + x_3_1_7 + x_3_2_7 + x_4_0_7 + x_4_1_7 + x_4_2_7 + x_5_0_7
 + x_5_1_7 + x_5_2_7 = 1
_C153: x_3_0_8 + x_3_1_8 + x_3_2_8 + x_3_3_8 + x_3_4_8 + x_3_5_8 + x_3_6_8
 + x_3_7_8 + x_3_8_8 = 1
_C154: x_0_3_8 + x_1_3_8 + x_2_3_8 + x_3_3_8 + x_4_3_8 + x_5_3_8 + x_6_3_8
 + x_7_3_8 + x_8_3_8 = 1
_C155: x_3_0_8 + x_3_1_8 + x_3_2_8 + x_4_0_8 + x_4_1_8 + x_4_2_8 + x_5_0_8
 + x_5_1_8 + x_5_2_8 = 1
_C156: x_3_0_9 + x_3_1_9 + x_3_2_9 + x_3_3_9 + x_3_4_9 + x_3_5_9 + x_3_6_9
 + x_3_7_9 + x_3_8_9 = 1
_C157: x_0_3_9 + x_1_3_9 + x_2_3_9 + x_3_3_9 + x_4_3_9 + x_5_3_9 + x_6_3_9
 + x_7_3_9 + x_8_3_9 = 1
_C158: x_3_0_9 + x_3_1_9 + x_3_2_9 + x_4_0_9 + x_4_1_9 + x_4_2_9 + x_5_0_9
 + x_5_1_9 + x_5_2_9 = 1
_C159: x_4_0_4 = 1
_C16: x_0_0_1 + x_0_1_1 + x_0_2_1 + x_1_0_1 + x_1_1_1 + x_1_2_1 + x_2_0_1
 + x_2_1_1 + x_2_2_1 = 1
_C160: x_4_0_1 + x_4_0_2 + x_4_0_3 + x_4_0_4 + x_4_0_5 + x_4_0_6 + x_4_0_7
 + x_4_0_8 + x_4_0_9 = 1
_C161: x_4_1_1 + x_4_1_2 + x_4_1_3 + x_4_1_4 + x_4_1_5 + x_4_1_6 + x_4_1_7
 + x_4_1_8 + x_4_1_9 = 1
_C162: x_4_2_1 + x_4_2_2 + x_4_2_3 + x_4_2_4 + x_4_2_5 + x_4_2_6 + x_4_2_7
 + x_4_2_8 + x_4_2_9 = 1
_C163: x_4_3_8 = 1
_C164: x_4_3_1 + x_4_3_2 + x_4_3_3 + x_4_3_4 + x_4_3_5 + x_4_3_6 + x_4_3_7
 + x_4_3_8 + x_4_3_9 = 1
_C165: x_4_4_1 + x_4_4_2 + x_4_4_3 + x_4_4_4 + x_4_4_5 + x_4_4_6 + x_4_4_7
 + x_4_4_8 + x_4_4_9 = 1
_C166: x_4_5_3 = 1
_C167: x_4_5_1 + x_4_5_2 + x_4_5_3 + x_4_5_4 + x_4_5_5 + x_4_5_6 + x_4_5_7
 + x_4_5_8 + x_4_5_9 = 1
_C168: x_4_6_1 + x_4_6_2 + x_4_6_3 + x_4_6_4 + x_4_6_5 + x_4_6_6 + x_4_6_7
 + x_4_6_8 + x_4_6_9 = 1
_C169: x_4_7_1 + x_4_7_2 + x_4_7_3 + x_4_7_4 + x_4_7_5 + x_4_7_6 + x_4_7_7
 + x_4_7_8 + x_4_7_9 = 1
_C17: x_0_0_2 + x_0_1_2 + x_0_2_2 + x_0_3_2 + x_0_4_2 + x_0_5_2 + x_0_6_2
 + x_0_7_2 + x_0_8_2 = 1
_C170: x_4_8_1 = 1
_C171: x_4_8_1 + x_4_8_2 + x_4_8_3 + x_4_8_4 + x_4_8_5 + x_4_8_6 + x_4_8_7
 + x_4_8_8 + x_4_8_9 = 1
_C172: x_4_0_1 + x_4_1_1 + x_4_2_1 + x_4_3_1 + x_4_4_1 + x_4_5_1 + x_4_6_1
 + x_4_7_1 + x_4_8_1 = 1
_C173: x_0_4_1 + x_1_4_1 + x_2_4_1 + x_3_4_1 + x_4_4_1 + x_5_4_1 + x_6_4_1
 + x_7_4_1 + x_8_4_1 = 1
_C174: x_3_3_1 + x_3_4_1 + x_3_5_1 + x_4_3_1 + x_4_4_1 + x_4_5_1 + x_5_3_1
 + x_5_4_1 + x_5_5_1 = 1
_C175: x_4_0_2 + x_4_1_2 + x_4_2_2 + x_4_3_2 + x_4_4_2 + x_4_5_2 + x_4_6_2
 + x_4_7_2 + x_4_8_2 = 1
_C176: x_0_4_2 + x_1_4_2 + x_2_4_2 + x_3_4_2 + x_4_4_2 + x_5_4_2 + x_6_4_2
 + x_7_4_2 + x_8_4_2 = 1
_C177: x_3_3_2 + x_3_4_2 + x_3_5_2 + x_4_3_2 + x_4_4_2 + x_4_5_2 + x_5_3_2
 + x_5_4_2 + x_5_5_2 = 1
_C178: x_4_0_3 + x_4_1_3 + x_4_2_3 + x_4_3_3 + x_4_4_3 + x_4_5_3 + x_4_6_3
 + x_4_7_3 + x_4_8_3 = 1
_C179: x_0_4_3 + x_1_4_3 + x_2_4_3 + x_3_4_3 + x_4_4_3 + x_5_4_3 + x_6_4_3
 + x_7_4_3 + x_8_4_3 = 1
_C18: x_0_0_2 + x_1_0_2 + x_2_0_2 + x_3_0_2 + x_4_0_2 + x_5_0_2 + x_6_0_2
 + x_7_0_2 + x_8_0_2 = 1
_C180: x_3_3_3 + x_3_4_3 + x_3_5_3 + x_4_3_3 + x_4_4_3 + x_4_5_3 + x_5_3_3
 + x_5_4_3 + x_5_5_3 = 1
_C181: x_4_0_4 + x_4_1_4 + x_4_2_4 + x_4_3_4 + x_4_4_4 + x_4_5_4 + x_4_6_4
 + x_4_7_4 + x_4_8_4 = 1
_C182: x_0_4_4 + x_1_4_4 + x_2_4_4 + x_3_4_4 + x_4_4_4 + x_5_4_4 + x_6_4_4
 + x_7_4_4 + x_8_4_4 = 1
_C183: x_3_3_4 + x_3_4_4 + x_3_5_4 + x_4_3_4 + x_4_4_4 + x_4_5_4 + x_5_3_4
 + x_5_4_4 + x_5_5_4 = 1
_C184: x_4_0_5 + x_4_1_5 + x_4_2_5 + x_4_3_5 + x_4_4_5 + x_4_5_5 + x_4_6_5
 + x_4_7_5 + x_4_8_5 = 1
_C185: x_0_4_5 + x_1_4_5 + x_2_4_5 + x_3_4_5 + x_4_4_5 + x_5_4_5 + x_6_4_5
 + x_7_4_5 + x_8_4_5 = 1
_C186: x_3_3_5 + x_3_4_5 + x_3_5_5 + x_4_3_5 + x_4_4_5 + x_4_5_5 + x_5_3_5
 + x_5_4_5 + x_5_5_5 = 1
_C187: x_4_0_6 + x_4_1_6 + x_4_2_6 + x_4_3_6 + x_4_4_6 + x_4_5_6 + x_4_6_6
 + x_4_7_6 + x_4_8_6 = 1
_C188: x_0_4_6 + x_1_4_6 + x_2_4_6 + x_3_4_6 + x_4_4_6 + x_5_4_6 + x_6_4_6
 + x_7_4_6 + x_8_4_6 = 1
_C189: x_3_3_6 + x_3_4_6 + x_3_5_6 + x_4_3_6 + x_4_4_6 + x_4_5_6 + x_5_3_6
 + x_5_4_6 + x_5_5_6 = 1
_C19: x_0_0_2 + x_0_1_2 + x_0_2_2 + x_1_0_2 + x_1_1_2 + x_1_2_2 + x_2_0_2
 + x_2_1_2 + x_2_2_2 = 1
_C190: x_4_0_7 + x_4_1_7 + x_4_2_7 + x_4_3_7 + x_4_4_7 + x_4_5_7 + x_4_6_7
 + x_4_7_7 + x_4_8_7 = 1
_C191: x_0_4_7 + x_1_4_7 + x_2_4_7 + x_3_4_7 + x_4_4_7 + x_5_4_7 + x_6_4_7
 + x_7_4_7 + x_8_4_7 = 1
_C192: x_3_3_7 + x_3_4_7 + x_3_5_7 + x_4_3_7 + x_4_4_7 + x_4_5_7 + x_5_3_7
 + x_5_4_7 + x_5_5_7 = 1
_C193: x_4_0_8 + x_4_1_8 + x_4_2_8 + x_4_3_8 + x_4_4_8 + x_4_5_8 + x_4_6_8
 + x_4_7_8 + x_4_8_8 = 1
_C194: x_0_4_8 + x_1_4_8 + x_2_4_8 + x_3_4_8 + x_4_4_8 + x_5_4_8 + x_6_4_8
 + x_7_4_8 + x_8_4_8 = 1
_C195: x_3_3_8 + x_3_4_8 + x_3_5_8 + x_4_3_8 + x_4_4_8 + x_4_5_8 + x_5_3_8
 + x_5_4_8 + x_5_5_8 = 1
_C196: x_4_0_9 + x_4_1_9 + x_4_2_9 + x_4_3_9 + x_4_4_9 + x_4_5_9 + x_4_6_9
 + x_4_7_9 + x_4_8_9 = 1
_C197: x_0_4_9 + x_1_4_9 + x_2_4_9 + x_3_4_9 + x_4_4_9 + x_5_4_9 + x_6_4_9
 + x_7_4_9 + x_8_4_9 = 1
_C198: x_3_3_9 + x_3_4_9 + x_3_5_9 + x_4_3_9 + x_4_4_9 + x_4_5_9 + x_5_3_9
 + x_5_4_9 + x_5_5_9 = 1
_C199: x_5_0_7 = 1
_C2: x_0_0_1 + x_0_0_2 + x_0_0_3 + x_0_0_4 + x_0_0_5 + x_0_0_6 + x_0_0_7
 + x_0_0_8 + x_0_0_9 = 1
_C20: x_0_0_3 + x_0_1_3 + x_0_2_3 + x_0_3_3 + x_0_4_3 + x_0_5_3 + x_0_6_3
 + x_0_7_3 + x_0_8_3 = 1
_C200: x_5_0_1 + x_5_0_2 + x_5_0_3 + x_5_0_4 + x_5_0_5 + x_5_0_6 + x_5_0_7
 + x_5_0_8 + x_5_0_9 = 1
_C201: x_5_1_1 + x_5_1_2 + x_5_1_3 + x_5_1_4 + x_5_1_5 + x_5_1_6 + x_5_1_7
 + x_5_1_8 + x_5_1_9 = 1
_C202: x_5_2_1 + x_5_2_2 + x_5_2_3 + x_5_2_4 + x_5_2_5 + x_5_2_6 + x_5_2_7
 + x_5_2_8 + x_5_2_9 = 1
_C203: x_5_3_1 + x_5_3_2 + x_5_3_3 + x_5_3_4 + x_5_3_5 + x_5_3_6 + x_5_3_7
 + x_5_3_8 + x_5_3_9 = 1
_C204: x_5_4_2 = 1
_C205: x_5_4_1 + x_5_4_2 + x_5_4_3 + x_5_4_4 + x_5_4_5 + x_5_4_6 + x_5_4_7
 + x_5_4_8 + x_5_4_9 = 1
_C206: x_5_5_1 + x_5_5_2 + x_5_5_3 + x_5_5_4 + x_5_5_5 + x_5_5_6 + x_5_5_7
 + x_5_5_8 + x_5_5_9 = 1
_C207: x_5_6_1 + x_5_6_2 + x_5_6_3 + x_5_6_4 + x_5_6_5 + x_5_6_6 + x_5_6_7
 + x_5_6_8 + x_5_6_9 = 1
_C208: x_5_7_1 + x_5_7_2 + x_5_7_3 + x_5_7_4 + x_5_7_5 + x_5_7_6 + x_5_7_7
 + x_5_7_8 + x_5_7_9 = 1
_C209: x_5_8_6 = 1
_C21: x_0_0_3 + x_1_0_3 + x_2_0_3 + x_3_0_3 + x_4_0_3 + x_5_0_3 + x_6_0_3
 + x_7_0_3 + x_8_0_3 = 1
_C210: x_5_8_1 + x_5_8_2 + x_5_8_3 + x_5_8_4 + x_5_8_5 + x_5_8_6 + x_5_8_7
 + x_5_8_8 + x_5_8_9 = 1
_C211: x_5_0_1 + x_5_1_1 + x_5_2_1 + x_5_3_1 + x_5_4_1 + x_5_5_1 + x_5_6_1
 + x_5_7_1 + x_5_8_1 = 1
_C212: x_0_5_1 + x_1_5_1 + x_2_5_1 + x_3_5_1 + x_4_5_1 + x_5_5_1 + x_6_5_1
 + x_7_5_1 + x_8_5_1 = 1
_C213: x_3_6_1 + x_3_7_1 + x_3_8_1 + x_4_6_1 + x_4_7_1 + x_4_8_1 + x_5_6_1
 + x_5_7_1 + x_5_8_1 = 1
_C214: x_5_0_2 + x_5_1_2 + x_5_2_2 + x_5_3_2 + x_5_4_2 + x_5_5_2 + x_5_6_2
 + x_5_7_2 + x_5_8_2 = 1
_C215: x_0_5_2 + x_1_5_2 + x_2_5_2 + x_3_5_2 + x_4_5_2 + x_5_5_2 + x_6_5_2
 + x_7_5_2 + x_8_5_2 = 1
_C216: x_3_6_2 + x_3_7_2 + x_3_8_2 + x_4_6_2 + x_4_7_2 + x_4_8_2 + x_5_6_2
 + x_5_7_2 + x_5_8_2 = 1
_C217: x_5_0_3 + x_5_1_3 + x_5_2_3 + x_5_3_3 + x_5_4_3 + x_5_5_3 + x_5_6_3
 + x_5_7_3 + x_5_8_3 = 1
_C218: x_0_5_3 + x_1_5_3 + x_2_5_3 + x_3_5_3 + x_4_5_3 + x_5_5_3 + x_6_5_3
 + x_7_5_3 + x_8_5_3 = 1
_C219: x_3_6_3 + x_3_7_3 + x_3_8_3 + x_4_6_3 + x_4_7_3 + x_4_8_3 + x_5_6_3
 + x_5_7_3 + x_5_8_3 = 1
_C22: x_0_0_3 + x_0_1_3 + x_0_2_3 + x_1_0_3 + x_1_1_3 + x_1_2_3 + x_2_0_3
 + x_2_1_3 + x_2_2_3 = 1
_C220: x_5_0_4 + x_5_1_4 + x_5_2_4 + x_5_3_4 + x_5_4_4 + x_5_5_4 + x_5_6_4
 + x_5_7_4 + x_5_8_4 = 1
_C221: x_0_5_4 + x_1_5_4 + x_2_5_4 + x_3_5_4 + x_4_5_4 + x_5_5_4 + x_6_5_4
 + x_7_5_4 + x_8_5_4 = 1
_C222: x_3_6_4 + x_3_7_4 + x_3_8_4 + x_4_6_4 + x_4_7_4 + x_4_8_4 + x_5_6_4
 + x_5_7_4 + x_5_8_4 = 1
_C223: x_5_0_5 + x_5_1_5 + x_5_2_5 + x_5_3_5 + x_5_4_5 + x_5_5_5 + x_5_6_5
 + x_5_7_5 + x_5_8_5 = 1
_C224: x_0_5_5 + x_1_5_5 + x_2_5_5 + x_3_5_5 + x_4_5_5 + x_5_5_5 + x_6_5_5
 + x_7_5_5 + x_8_5_5 = 1
_C225: x_3_6_5 + x_3_7_5 + x_3_8_5 + x_4_6_5 + x_4_7_5 + x_4_8_5 + x_5_6_5
 + x_5_7_5 + x_5_8_5 = 1
_C226: x_5_0_6 + x_5_1_6 + x_5_2_6 + x_5_3_6 + x_5_4_6 + x_5_5_6 + x_5_6_6
 + x_5_7_6 + x_5_8_6 = 1
_C227: x_0_5_6 + x_1_5_6 + x_2_5_6 + x_3_5_6 + x_4_5_6 + x_5_5_6 + x_6_5_6
 + x_7_5_6 + x_8_5_6 = 1
_C228: x_3_6_6 + x_3_7_6 + x_3_8_6 + x_4_6_6 + x_4_7_6 + x_4_8_6 + x_5_6_6
 + x_5_7_6 + x_5_8_6 = 1
_C229: x_5_0_7 + x_5_1_7 + x_5_2_7 + x_5_3_7 + x_5_4_7 + x_5_5_7 + x_5_6_7
 + x_5_7_7 + x_5_8_7 = 1
_C23: x_0_0_4 + x_0_1_4 + x_0_2_4 + x_0_3_4 + x_0_4_4 + x_0_5_4 + x_0_6_4
 + x_0_7_4 + x_0_8_4 = 1
_C230: x_0_5_7 + x_1_5_7 + x_2_5_7 + x_3_5_7 + x_4_5_7 + x_5_5_7 + x_6_5_7
 + x_7_5_7 + x_8_5_7 = 1
_C231: x_3_6_7 + x_3_7_7 + x_3_8_7 + x_4_6_7 + x_4_7_7 + x_4_8_7 + x_5_6_7
 + x_5_7_7 + x_5_8_7 = 1
_C232: x_5_0_8 + x_5_1_8 + x_5_2_8 + x_5_3_8 + x_5_4_8 + x_5_5_8 + x_5_6_8
 + x_5_7_8 + x_5_8_8 = 1
_C233: x_0_5_8 + x_1_5_8 + x_2_5_8 + x_3_5_8 + x_4_5_8 + x_5_5_8 + x_6_5_8
 + x_7_5_8 + x_8_5_8 = 1
_C234: x_3_6_8 + x_3_7_8 + x_3_8_8 + x_4_6_8 + x_4_7_8 + x_4_8_8 + x_5_6_8
 + x_5_7_8 + x_5_8_8 = 1
_C235: x_5_0_9 + x_5_1_9 + x_5_2_9 + x_5_3_9 + x_5_4_9 + x_5_5_9 + x_5_6_9
 + x_5_7_9 + x_5_8_9 = 1
_C236: x_0_5_9 + x_1_5_9 + x_2_5_9 + x_3_5_9 + x_4_5_9 + x_5_5_9 + x_6_5_9
 + x_7_5_9 + x_8_5_9 = 1
_C237: x_3_6_9 + x_3_7_9 + x_3_8_9 + x_4_6_9 + x_4_7_9 + x_4_8_9 + x_5_6_9
 + x_5_7_9 + x_5_8_9 = 1
_C238: x_6_0_1 + x_6_0_2 + x_6_0_3 + x_6_0_4 + x_6_0_5 + x_6_0_6 + x_6_0_7
 + x_6_0_8 + x_6_0_9 = 1
_C239: x_6_1_6 = 1
_C24: x_0_0_4 + x_1_0_4 + x_2_0_4 + x_3_0_4 + x_4_0_4 + x_5_0_4 + x_6_0_4
 + x_7_0_4 + x_8_0_4 = 1
_C240: x_6_1_1 + x_6_1_2 + x_6_1_3 + x_6_1_4 + x_6_1_5 + x_6_1_6 + x_6_1_7
 + x_6_1_8 + x_6_1_9 = 1
_C241: x_6_2_1 + x_6_2_2 + x_6_2_3 + x_6_2_4 + x_6_2_5 + x_6_2_6 + x_6_2_7
 + x_6_2_8 + x_6_2_9 = 1
_C242: x_6_3_1 + x_6_3_2 + x_6_3_3 + x_6_3_4 + x_6_3_5 + x_6_3_6 + x_6_3_7
 + x_6_3_8 + x_6_3_9 = 1
_C243: x_6_4_1 + x_6_4_2 + x_6_4_3 + x_6_4_4 + x_6_4_5 + x_6_4_6 + x_6_4_7
 + x_6_4_8 + x_6_4_9 = 1
_C244: x_6_5_1 + x_6_5_2 + x_6_5_3 + x_6_5_4 + x_6_5_5 + x_6_5_6 + x_6_5_7
 + x_6_5_8 + x_6_5_9 = 1
_C245: x_6_6_2 = 1
_C246: x_6_6_1 + x_6_6_2 + x_6_6_3 + x_6_6_4 + x_6_6_5 + x_6_6_6 + x_6_6_7
 + x_6_6_8 + x_6_6_9 = 1
_C247: x_6_7_8 = 1
_C248: x_6_7_1 + x_6_7_2 + x_6_7_3 + x_6_7_4 + x_6_7_5 + x_6_7_6 + x_6_7_7
 + x_6_7_8 + x_6_7_9 = 1
_C249: x_6_8_1 + x_6_8_2 + x_6_8_3 + x_6_8_4 + x_6_8_5 + x_6_8_6 + x_6_8_7
 + x_6_8_8 + x_6_8_9 = 1
_C25: x_0_0_4 + x_0_1_4 + x_0_2_4 + x_1_0_4 + x_1_1_4 + x_1_2_4 + x_2_0_4
 + x_2_1_4 + x_2_2_4 = 1
_C250: x_6_0_1 + x_6_1_1 + x_6_2_1 + x_6_3_1 + x_6_4_1 + x_6_5_1 + x_6_6_1
 + x_6_7_1 + x_6_8_1 = 1
_C251: x_0_6_1 + x_1_6_1 + x_2_6_1 + x_3_6_1 + x_4_6_1 + x_5_6_1 + x_6_6_1
 + x_7_6_1 + x_8_6_1 = 1
_C252: x_6_0_1 + x_6_1_1 + x_6_2_1 + x_7_0_1 + x_7_1_1 + x_7_2_1 + x_8_0_1
 + x_8_1_1 + x_8_2_1 = 1
_C253: x_6_0_2 + x_6_1_2 + x_6_2_2 + x_6_3_2 + x_6_4_2 + x_6_5_2 + x_6_6_2
 + x_6_7_2 + x_6_8_2 = 1
_C254: x_0_6_2 + x_1_6_2 + x_2_6_2 + x_3_6_2 + x_4_6_2 + x_5_6_2 + x_6_6_2
 + x_7_6_2 + x_8_6_2 = 1
_C255: x_6_0_2 + x_6_1_2 + x_6_2_2 + x_7_0_2 + x_7_1_2 + x_7_2_2 + x_8_0_2
 + x_8_1_2 + x_8_2_2 = 1
_C256: x_6_0_3 + x_6_1_3 + x_6_2_3 + x_6_3_3 + x_6_4_3 + x_6_5_3 + x_6_6_3
 + x_6_7_3 + x_6_8_3 = 1
_C257: x_0_6_3 + x_1_6_3 + x_2_6_3 + x_3_6_3 + x_4_6_3 + x_5_6_3 + x_6_6_3
 + x_7_6_3 + x_8_6_3 = 1
_C258: x_6_0_3 + x_6_1_3 + x_6_2_3 + x_7_0_3 + x_7_1_3 + x_7_2_3 + x_8_0_3
 + x_8_1_3 + x_8_2_3 = 1
_C259: x_6_0_4 + x_6_1_4 + x_6_2_4 + x_6_3_4 + x_6_4_4 + x_6_5_4 + x_6_6_4
 + x_6_7_4 + x_6_8_4 = 1
_C26: x_0_0_5 + x_0_1_5 + x_0_2_5 + x_0_3_5 + x_0_4_5 + x_0_5_5 + x_0_6_5
 + x_0_7_5 + x_0_8_5 = 1
_C260: x_0_6_4 + x_1_6_4 + x_2_6_4 + x_3_6_4 + x_4_6_4 + x_5_6_4 + x_6_6_4
 + x_7_6_4 + x_8_6_4 = 1
_C261: x_6_0_4 + x_6_1_4 + x_6_2_4 + x_7_0_4 + x_7_1_4 + x_7_2_4 + x_8_0_4
 + x_8_1_4 + x_8_2_4 = 1
_C262: x_6_0_5 + x_6_1_5 + x_6_2_5 + x_6_3_5 + x_6_4_5 + x_6_5_5 + x_6_6_5
 + x_6_7_5 + x_6_8_5 = 1
_C263: x_0_6_5 + x_1_6_5 + x_2_6_5 + x_3_6_5 + x_4_6_5 + x_5_6_5 + x_6_6_5
 + x_7_6_5 + x_8_6_5 = 1
_C264: x_6_0_5 + x_6_1_5 + x_6_2_5 + x_7_0_5 + x_7_1_5 + x_7_2_5 + x_8_0_5
 + x_8_1_5 + x_8_2_5 = 1
_C265: x_6_0_6 + x_6_1_6 + x_6_2_6 + x_6_3_6 + x_6_4_6 + x_6_5_6 + x_6_6_6
 + x_6_7_6 + x_6_8_6 = 1
_C266: x_0_6_6 + x_1_6_6 + x_2_6_6 + x_3_6_6 + x_4_6_6 + x_5_6_6 + x_6_6_6
 + x_7_6_6 + x_8_6_6 = 1
_C267: x_6_0_6 + x_6_1_6 + x_6_2_6 + x_7_0_6 + x_7_1_6 + x_7_2_6 + x_8_0_6
 + x_8_1_6 + x_8_2_6 = 1
_C268: x_6_0_7 + x_6_1_7 + x_6_2_7 + x_6_3_7 + x_6_4_7 + x_6_5_7 + x_6_6_7
 + x_6_7_7 + x_6_8_7 = 1
_C269: x_0_6_7 + x_1_6_7 + x_2_6_7 + x_3_6_7 + x_4_6_7 + x_5_6_7 + x_6_6_7
 + x_7_6_7 + x_8_6_7 = 1
_C27: x_0_0_5 + x_1_0_5 + x_2_0_5 + x_3_0_5 + x_4_0_5 + x_5_0_5 + x_6_0_5
 + x_7_0_5 + x_8_0_5 = 1
_C270: x_6_0_7 + x_6_1_7 + x_6_2_7 + x_7_0_7 + x_7_1_7 + x_7_2_7 + x_8_0_7
 + x_8_1_7 + x_8_2_7 = 1
_C271: x_6_0_8 + x_6_1_8 + x_6_2_8 + x_6_3_8 + x_6_4_8 + x_6_5_8 + x_6_6_8
 + x_6_7_8 + x_6_8_8 = 1
_C272: x_0_6_8 + x_1_6_8 + x_2_6_8 + x_3_6_8 + x_4_6_8 + x_5_6_8 + x_6_6_8
 + x_7_6_8 + x_8_6_8 = 1
_C273: x_6_0_8 + x_6_1_8 + x_6_2_8 + x_7_0_8 + x_7_1_8 + x_7_2_8 + x_8_0_8
 + x_8_1_8 + x_8_2_8 = 1
_C274: x_6_0_9 + x_6_1_9 + x_6_2_9 + x_6_3_9 + x_6_4_9 + x_6_5_9 + x_6_6_9
 + x_6_7_9 + x_6_8_9 = 1
_C275: x_0_6_9 + x_1_6_9 + x_2_6_9 + x_3_6_9 + x_4_6_9 + x_5_6_9 + x_6_6_9
 + x_7_6_9 + x_8_6_9 = 1
_C276: x_6_0_9 + x_6_1_9 + x_6_2_9 + x_7_0_9 + x_7_1_9 + x_7_2_9 + x_8_0_9
 + x_8_1_9 + x_8_2_9 = 1
_C277: x_7_0_1 + x_7_0_2 + x_7_0_3 + x_7_0_4 + x_7_0_5 + x_7_0_6 + x_7_0_7
 + x_7_0_8 + x_7_0_9 = 1
_C278: x_7_1_1 + x_7_1_2 + x_7_1_3 + x_7_1_4 + x_7_1_5 + x_7_1_6 + x_7_1_7
 + x_7_1_8 + x_7_1_9 = 1
_C279: x_7_2_1 + x_7_2_2 + x_7_2_3 + x_7_2_4 + x_7_2_5 + x_7_2_6 + x_7_2_7
 + x_7_2_8 + x_7_2_9 = 1
_C28: x_0_0_5 + x_0_1_5 + x_0_2_5 + x_1_0_5 + x_1_1_5 + x_1_2_5 + x_2_0_5
 + x_2_1_5 + x_2_2_5 = 1
_C280: x_7_3_4 = 1
_C281: x_7_3_1 + x_7_3_2 + x_7_3_3 + x_7_3_4 + x_7_3_5 + x_7_3_6 + x_7_3_7
 + x_7_3_8 + x_7_3_9 = 1
_C282: x_7_4_1 = 1
_C283: x_7_4_1 + x_7_4_2 + x_7_4_3 + x_7_4_4 + x_7_4_5 + x_7_4_6 + x_7_4_7
 + x_7_4_8 + x_7_4_9 = 1
_C284: x_7_5_9 = 1
_C285: x_7_5_1 + x_7_5_2 + x_7_5_3 + x_7_5_4 + x_7_5_5 + x_7_5_6 + x_7_5_7
 + x_7_5_8 + x_7_5_9 = 1
_C286: x_7_6_1 + x_7_6_2 + x_7_6_3 + x_7_6_4 + x_7_6_5 + x_7_6_6 + x_7_6_7
 + x_7_6_8 + x_7_6_9 = 1
_C287: x_7_7_1 + x_7_7_2 + x_7_7_3 + x_7_7_4 + x_7_7_5 + x_7_7_6 + x_7_7_7
 + x_7_7_8 + x_7_7_9 = 1
_C288: x_7_8_5 = 1
_C289: x_7_8_1 + x_7_8_2 + x_7_8_3 + x_7_8_4 + x_7_8_5 + x_7_8_6 + x_7_8_7
 + x_7_8_8 + x_7_8_9 = 1
_C29: x_0_0_6 + x_0_1_6 + x_0_2_6 + x_0_3_6 + x_0_4_6 + x_0_5_6 + x_0_6_6
 + x_0_7_6 + x_0_8_6 = 1
_C290: x_7_0_1 + x_7_1_1 + x_7_2_1 + x_7_3_1 + x_7_4_1 + x_7_5_1 + x_7_6_1
 + x_7_7_1 + x_7_8_1 = 1
_C291: x_0_7_1 + x_1_7_1 + x_2_7_1 + x_3_7_1 + x_4_7_1 + x_5_7_1 + x_6_7_1
 + x_7_7_1 + x_8_7_1 = 1
_C292: x_6_3_1 + x_6_4_1 + x_6_5_1 + x_7_3_1 + x_7_4_1 + x_7_5_1 + x_8_3_1
 + x_8_4_1 + x_8_5_1 = 1
_C293: x_7_0_2 + x_7_1_2 + x_7_2_2 + x_7_3_2 + x_7_4_2 + x_7_5_2 + x_7_6_2
 + x_7_7_2 + x_7_8_2 = 1
_C294: x_0_7_2 + x_1_7_2 + x_2_7_2 + x_3_7_2 + x_4_7_2 + x_5_7_2 + x_6_7_2
 + x_7_7_2 + x_8_7_2 = 1
_C295: x_6_3_2 + x_6_4_2 + x_6_5_2 + x_7_3_2 + x_7_4_2 + x_7_5_2 + x_8_3_2
 + x_8_4_2 + x_8_5_2 = 1
_C296: x_7_0_3 + x_7_1_3 + x_7_2_3 + x_7_3_3 + x_7_4_3 + x_7_5_3 + x_7_6_3
 + x_7_7_3 + x_7_8_3 = 1
_C297: x_0_7_3 + x_1_7_3 + x_2_7_3 + x_3_7_3 + x_4_7_3 + x_5_7_3 + x_6_7_3
 + x_7_7_3 + x_8_7_3 = 1
_C298: x_6_3_3 + x_6_4_3 + x_6_5_3 + x_7_3_3 + x_7_4_3 + x_7_5_3 + x_8_3_3
 + x_8_4_3 + x_8_5_3 = 1
_C299: x_7_0_4 + x_7_1_4 + x_7_2_4 + x_7_3_4 + x_7_4_4 + x_7_5_4 + x_7_6_4
 + x_7_7_4 + x_7_8_4 = 1
_C3: x_0_1_3 = 1
_C30: x_0_0_6 + x_1_0_6 + x_2_0_6 + x_3_0_6 + x_4_0_6 + x_5_0_6 + x_6_0_6
 + x_7_0_6 + x_8_0_6 = 1
_C300: x_0_7_4 + x_1_7_4 + x_2_7_4 + x_3_7_4 + x_4_7_4 + x_5_7_4 + x_6_7_4
 + x_7_7_4 + x_8_7_4 = 1
_C301: x_6_3_4 + x_6_4_4 + x_6_5_4 + x_7_3_4 + x_7_4_4 + x_7_5_4 + x_8_3_4
 + x_8_4_4 + x_8_5_4 = 1
_C302: x_7_0_5 + x_7_1_5 + x_7_2_5 + x_7_3_5 + x_7_4_5 + x_7_5_5 + x_7_6_5
 + x_7_7_5 + x_7_8_5 = 1
_C303: x_0_7_5 + x_1_7_5 + x_2_7_5 + x_3_7_5 + x_4_7_5 + x_5_7_5 + x_6_7_5
 + x_7_7_5 + x_8_7_5 = 1
_C304: x_6_3_5 + x_6_4_5 + x_6_5_5 + x_7_3_5 + x_7_4_5 + x_7_5_5 + x_8_3_5
 + x_8_4_5 + x_8_5_5 = 1
_C305: x_7_0_6 + x_7_1_6 + x_7_2_6 + x_7_3_6 + x_7_4_6 + x_7_5_6 + x_7_6_6
 + x_7_7_6 + x_7_8_6 = 1
_C306: x_0_7_6 + x_1_7_6 + x_2_7_6 + x_3_7_6 + x_4_7_6 + x_5_7_6 + x_6_7_6
 + x_7_7_6 + x_8_7_6 = 1
_C307: x_6_3_6 + x_6_4_6 + x_6_5_6 + x_7_3_6 + x_7_4_6 + x_7_5_6 + x_8_3_6
 + x_8_4_6 + x_8_5_6 = 1
_C308: x_7_0_7 + x_7_1_7 + x_7_2_7 + x_7_3_7 + x_7_4_7 + x_7_5_7 + x_7_6_7
 + x_7_7_7 + x_7_8_7 = 1
_C309: x_0_7_7 + x_1_7_7 + x_2_7_7 + x_3_7_7 + x_4_7_7 + x_5_7_7 + x_6_7_7
 + x_7_7_7 + x_8_7_7 = 1
_C31: x_0_0_6 + x_0_1_6 + x_0_2_6 + x_1_0_6 + x_1_1_6 + x_1_2_6 + x_2_0_6
 + x_2_1_6 + x_2_2_6 = 1
_C310: x_6_3_7 + x_6_4_7 + x_6_5_7 + x_7_3_7 + x_7_4_7 + x_7_5_7 + x_8_3_7
 + x_8_4_7 + x_8_5_7 = 1
_C311: x_7_0_8 + x_7_1_8 + x_7_2_8 + x_7_3_8 + x_7_4_8 + x_7_5_8 + x_7_6_8
 + x_7_7_8 + x_7_8_8 = 1
_C312: x_0_7_8 + x_1_7_8 + x_2_7_8 + x_3_7_8 + x_4_7_8 + x_5_7_8 + x_6_7_8
 + x_7_7_8 + x_8_7_8 = 1
_C313: x_6_3_8 + x_6_4_8 + x_6_5_8 + x_7_3_8 + x_7_4_8 + x_7_5_8 + x_8_3_8
 + x_8_4_8 + x_8_5_8 = 1
_C314: x_7_0_9 + x_7_1_9 + x_7_2_9 + x_7_3_9 + x_7_4_9 + x_7_5_9 + x_7_6_9
 + x_7_7_9 + x_7_8_9 = 1
_C315: x_0_7_9 + x_1_7_9 + x_2_7_9 + x_3_7_9 + x_4_7_9 + x_5_7_9 + x_6_7_9
 + x_7_7_9 + x_8_7_9 = 1
_C316: x_6_3_9 + x_6_4_9 + x_6_5_9 + x_7_3_9 + x_7_4_9 + x_7_5_9 + x_8_3_9
 + x_8_4_9 + x_8_5_9 = 1
_C317: x_8_0_1 + x_8_0_2 + x_8_0_3 + x_8_0_4 + x_8_0_5 + x_8_0_6 + x_8_0_7
 + x_8_0_8 + x_8_0_9 = 1
_C318: x_8_1_1 + x_8_1_2 + x_8_1_3 + x_8_1_4 + x_8_1_5 + x_8_1_6 + x_8_1_7
 + x_8_1_8 + x_8_1_9 = 1
_C319: x_8_2_1 + x_8_2_2 + x_8_2_3 + x_8_2_4 + x_8_2_5 + x_8_2_6 + x_8_2_7
 + x_8_2_8 + x_8_2_9 = 1
_C32: x_0_0_7 + x_0_1_7 + x_0_2_7 + x_0_3_7 + x_0_4_7 + x_0_5_7 + x_0_6_7
 + x_0_7_7 + x_0_8_7 = 1
_C320: x_8_3_1 + x_8_3_2 + x_8_3_3 + x_8_3_4 + x_8_3_5 + x_8_3_6 + x_8_3_7
 + x_8_3_8 + x_8_3_9 = 1
_C321: x_8_4_8 = 1
_C322: x_8_4_1 + x_8_4_2 + x_8_4_3 + x_8_4_4 + x_8_4_5 + x_8_4_6 + x_8_4_7
 + x_8_4_8 + x_8_4_9 = 1
_C323: x_8_5_1 + x_8_5_2 + x_8_5_3 + x_8_5_4 + x_8_5_5 + x_8_5_6 + x_8_5_7
 + x_8_5_8 + x_8_5_9 = 1
_C324: x_8_6_1 + x_8_6_2 + x_8_6_3 + x_8_6_4 + x_8_6_5 + x_8_6_6 + x_8_6_7
 + x_8_6_8 + x_8_6_9 = 1
_C325: x_8_7_7 = 1
_C326: x_8_7_1 + x_8_7_2 + x_8_7_3 + x_8_7_4 + x_8_7_5 + x_8_7_6 + x_8_7_7
 + x_8_7_8 + x_8_7_9 = 1
_C327: x_8_8_9 = 1
_C328: x_8_8_1 + x_8_8_2 + x_8_8_3 + x_8_8_4 + x_8_8_5 + x_8_8_6 + x_8_8_7
 + x_8_8_8 + x_8_8_9 = 1
_C329: x_8_0_1 + x_8_1_1 + x_8_2_1 + x_8_3_1 + x_8_4_1 + x_8_5_1 + x_8_6_1
 + x_8_7_1 + x_8_8_1 = 1
_C33: x_0_0_7 + x_1_0_7 + x_2_0_7 + x_3_0_7 + x_4_0_7 + x_5_0_7 + x_6_0_7
 + x_7_0_7 + x_8_0_7 = 1
_C330: x_0_8_1 + x_1_8_1 + x_2_8_1 + x_3_8_1 + x_4_8_1 + x_5_8_1 + x_6_8_1
 + x_7_8_1 + x_8_8_1 = 1
_C331: x_6_6_1 + x_6_7_1 + x_6_8_1 + x_7_6_1 + x_7_7_1 + x_7_8_1 + x_8_6_1
 + x_8_7_1 + x_8_8_1 = 1
_C332: x_8_0_2 + x_8_1_2 + x_8_2_2 + x_8_3_2 + x_8_4_2 + x_8_5_2 + x_8_6_2
 + x_8_7_2 + x_8_8_2 = 1
_C333: x_0_8_2 + x_1_8_2 + x_2_8_2 + x_3_8_2 + x_4_8_2 + x_5_8_2 + x_6_8_2
 + x_7_8_2 + x_8_8_2 = 1
_C334: x_6_6_2 + x_6_7_2 + x_6_8_2 + x_7_6_2 + x_7_7_2 + x_7_8_2 + x_8_6_2
 + x_8_7_2 + x_8_8_2 = 1
_C335: x_8_0_3 + x_8_1_3 + x_8_2_3 + x_8_3_3 + x_8_4_3 + x_8_5_3 + x_8_6_3
 + x_8_7_3 + x_8_8_3 = 1
_C336: x_0_8_3 + x_1_8_3 + x_2_8_3 + x_3_8_3 + x_4_8_3 + x_5_8_3 + x_6_8_3
 + x_7_8_3 + x_8_8_3 = 1
_C337: x_6_6_3 + x_6_7_3 + x_6_8_3 + x_7_6_3 + x_7_7_3 + x_7_8_3 + x_8_6_3
 + x_8_7_3 + x_8_8_3 = 1
_C338: x_8_0_4 + x_8_1_4 + x_8_2_4 + x_8_3_4 + x_8_4_4 + x_8_5_4 + x_8_6_4
 + x_8_7_4 + x_8_8_4 = 1
_C339: x_0_8_4 + x_1_8_4 + x_2_8_4 + x_3_8_4 + x_4_8_4 + x_5_8_4 + x_6_8_4
 + x_7_8_4 + x_8_8_4 = 1
_C34: x_0_0_7 + x_0_1_7 + x_0_2_7 + x_1_0_7 + x_1_1_7 + x_1_2_7 + x_2_0_7
 + x_2_1_7 + x_2_2_7 = 1
_C340: x_6_6_4 + x_6_7_4 + x_6_8_4 + x_7_6_4 + x_7_7_4 + x_7_8_4 + x_8_6_4
 + x_8_7_4 + x_8_8_4 = 1
_C341: x_8_0_5 + x_8_1_5 + x_8_2_5 + x_8_3_5 + x_8_4_5 + x_8_5_5 + x_8_6_5
 + x_8_7_5 + x_8_8_5 = 1
_C342: x_0_8_5 + x_1_8_5 + x_2_8_5 + x_3_8_5 + x_4_8_5 + x_5_8_5 + x_6_8_5
 + x_7_8_5 + x_8_8_5 = 1
_C343: x_6_6_5 + x_6_7_5 + x_6_8_5 + x_7_6_5 + x_7_7_5 + x_7_8_5 + x_8_6_5
 + x_8_7_5 + x_8_8_5 = 1
_C344: x_8_0_6 + x_8_1_6 + x_8_2_6 + x_8_3_6 + x_8_4_6 + x_8_5_6 + x_8_6_6
 + x_8_7_6 + x_8_8_6 = 1
_C345: x_0_8_6 + x_1_8_6 + x_2_8_6 + x_3_8_6 + x_4_8_6 + x_5_8_6 + x_6_8_6
 + x_7_8_6 + x_8_8_6 = 1
_C346: x_6_6_6 + x_6_7_6 + x_6_8_6 + x_7_6_6 + x_7_7_6 + x_7_8_6 + x_8_6_6
 + x_8_7_6 + x_8_8_6 = 1
_C347: x_8_0_7 + x_8_1_7 + x_8_2_7 + x_8_3_7 + x_8_4_7 + x_8_5_7 + x_8_6_7
 + x_8_7_7 + x_8_8_7 = 1
_C348: x_0_8_7 + x_1_8_7 + x_2_8_7 + x_3_8_7 + x_4_8_7 + x_5_8_7 + x_6_8_7
 + x_7_8_7 + x_8_8_7 = 1
_C349: x_6_6_7 + x_6_7_7 + x_6_8_7 + x_7_6_7 + x_7_7_7 + x_7_8_7 + x_8_6_7
 + x_8_7_7 + x_8_8_7 = 1
_C35: x_0_0_8 + x_0_1_8 + x_0_2_8 + x_0_3_8 + x_0_4_8 + x_0_5_8 + x_0_6_8
 + x_0_7_8 + x_0_8_8 = 1
_C350: x_8_0_8 + x_8_1_8 + x_8_2_8 + x_8_3_8 + x_8_4_8 + x_8_5_8 + x_8_6_8
 + x_8_7_8 + x_8_8_8 = 1
_C351: x_0_8_8 + x_1_8_8 + x_2_8_8 + x_3_8_8 + x_4_8_8 + x_5_8_8 + x_6_8_8
 + x_7_8_8 + x_8_8_8 = 1
_C352: x_6_6_8 + x_6_7_8 + x_6_8_8 + x_7_6_8 + x_7_7_8 + x_7_8_8 + x_8_6_8
 + x_8_7_8 + x_8_8_8 = 1
_C353: x_8_0_9 + x_8_1_9 + x_8_2_9 + x_8_3_9 + x_8_4_9 + x_8_5_9 + x_8_6_9
 + x_8_7_9 + x_8_8_9 = 1
_C354: x_0_8_9 + x_1_8_9 + x_2_8_9 + x_3_8_9 + x_4_8_9 + x_5_8_9 + x_6_8_9
 + x_7_8_9 + x_8_8_9 = 1
_C355: x_6_6_9 + x_6_7_9 + x_6_8_9 + x_7_6_9 + x_7_7_9 + x_7_8_9 + x_8_6_9
 + x_8_7_9 + x_8_8_9 = 1
_C36: x_0_0_8 + x_1_0_8 + x_2_0_8 + x_3_0_8 + x_4_0_8 + x_5_0_8 + x_6_0_8
 + x_7_0_8 + x_8_0_8 = 1
_C37: x_0_0_8 + x_0_1_8 + x_0_2_8 + x_1_0_8 + x_1_1_8 + x_1_2_8 + x_2_0_8
 + x_2_1_8 + x_2_2_8 = 1
_C38: x_0_0_9 + x_0_1_9 + x_0_2_9 + x_0_3_9 + x_0_4_9 + x_0_5_9 + x_0_6_9
 + x_0_7_9 + x_0_8_9 = 1
_C39: x_0_0_9 + x_1_0_9 + x_2_0_9 + x_3_0_9 + x_4_0_9 + x_5_0_9 + x_6_0_9
 + x_7_0_9 + x_8_0_9 = 1
_C4: x_0_1_1 + x_0_1_2 + x_0_1_3 + x_0_1_4 + x_0_1_5 + x_0_1_6 + x_0_1_7
 + x_0_1_8 + x_0_1_9 = 1
_C40: x_0_0_9 + x_0_1_9 + x_0_2_9 + x_1_0_9 + x_1_1_9 + x_1_2_9 + x_2_0_9
 + x_2_1_9 + x_2_2_9 = 1
_C41: x_1_0_6 = 1
_C42: x_1_0_1 + x_1_0_2 + x_1_0_3 + x_1_0_4 + x_1_0_5 + x_1_0_6 + x_1_0_7
 + x_1_0_8 + x_1_0_9 = 1
_C43: x_1_1_1 + x_1_1_2 + x_1_1_3 + x_1_1_4 + x_1_1_5 + x_1_1_6 + x_1_1_7
 + x_1_1_8 + x_1_1_9 = 1
_C44: x_1_2_1 + x_1_2_2 + x_1_2_3 + x_1_2_4 + x_1_2_5 + x_1_2_6 + x_1_2_7
 + x_1_2_8 + x_1_2_9 = 1
_C45: x_1_3_1 = 1
_C46: x_1_3_1 + x_1_3_2 + x_1_3_3 + x_1_3_4 + x_1_3_5 + x_1_3_6 + x_1_3_7
 + x_1_3_8 + x_1_3_9 = 1
_C47: x_1_4_9 = 1
_C48: x_1_4_1 + x_1_4_2 + x_1_4_3 + x_1_4_4 + x_1_4_5 + x_1_4_6 + x_1_4_7
 + x_1_4_8 + x_1_4_9 = 1
_C49: x_1_5_5 = 1
_C5: x_0_2_4 = 1
_C50: x_1_5_1 + x_1_5_2 + x_1_5_3 + x_1_5_4 + x_1_5_5 + x_1_5_6 + x_1_5_7
 + x_1_5_8 + x_1_5_9 = 1
_C51: x_1_6_1 + x_1_6_2 + x_1_6_3 + x_1_6_4 + x_1_6_5 + x_1_6_6 + x_1_6_7
 + x_1_6_8 + x_1_6_9 = 1
_C52: x_1_7_1 + x_1_7_2 + x_1_7_3 + x_1_7_4 + x_1_7_5 + x_1_7_6 + x_1_7_7
 + x_1_7_8 + x_1_7_9 = 1
_C53: x_1_8_1 + x_1_8_2 + x_1_8_3 + x_1_8_4 + x_1_8_5 + x_1_8_6 + x_1_8_7
 + x_1_8_8 + x_1_8_9 = 1
_C54: x_1_0_1 + x_1_1_1 + x_1_2_1 + x_1_3_1 + x_1_4_1 + x_1_5_1 + x_1_6_1
 + x_1_7_1 + x_1_8_1 = 1
_C55: x_0_1_1 + x_1_1_1 + x_2_1_1 + x_3_1_1 + x_4_1_1 + x_5_1_1 + x_6_1_1
 + x_7_1_1 + x_8_1_1 = 1
_C56: x_0_3_1 + x_0_4_1 + x_0_5_1 + x_1_3_1 + x_1_4_1 + x_1_5_1 + x_2_3_1
 + x_2_4_1 + x_2_5_1 = 1
_C57: x_1_0_2 + x_1_1_2 + x_1_2_2 + x_1_3_2 + x_1_4_2 + x_1_5_2 + x_1_6_2
 + x_1_7_2 + x_1_8_2 = 1
_C58: x_0_1_2 + x_1_1_2 + x_2_1_2 + x_3_1_2 + x_4_1_2 + x_5_1_2 + x_6_1_2
 + x_7_1_2 + x_8_1_2 = 1
_C59: x_0_3_2 + x_0_4_2 + x_0_5_2 + x_1_3_2 + x_1_4_2 + x_1_5_2 + x_2_3_2
 + x_2_4_2 + x_2_5_2 = 1
_C6: x_0_2_1 + x_0_2_2 + x_0_2_3 + x_0_2_4 + x_0_2_5 + x_0_2_6 + x_0_2_7
 + x_0_2_8 + x_0_2_9 = 1
_C60: x_1_0_3 + x_1_1_3 + x_1_2_3 + x_1_3_3 + x_1_4_3 + x_1_5_3 + x_1_6_3
 + x_1_7_3 + x_1_8_3 = 1
_C61: x_0_1_3 + x_1_1_3 + x_2_1_3 + x_3_1_3 + x_4_1_3 + x_5_1_3 + x_6_1_3
 + x_7_1_3 + x_8_1_3 = 1
_C62: x_0_3_3 + x_0_4_3 + x_0_5_3 + x_1_3_3 + x_1_4_3 + x_1_5_3 + x_2_3_3
 + x_2_4_3 + x_2_5_3 = 1
_C63: x_1_0_4 + x_1_1_4 + x_1_2_4 + x_1_3_4 + x_1_4_4 + x_1_5_4 + x_1_6_4
 + x_1_7_4 + x_1_8_4 = 1
_C64: x_0_1_4 + x_1_1_4 + x_2_1_4 + x_3_1_4 + x_4_1_4 + x_5_1_4 + x_6_1_4
 + x_7_1_4 + x_8_1_4 = 1
_C65: x_0_3_4 + x_0_4_4 + x_0_5_4 + x_1_3_4 + x_1_4_4 + x_1_5_4 + x_2_3_4
 + x_2_4_4 + x_2_5_4 = 1
_C66: x_1_0_5 + x_1_1_5 + x_1_2_5 + x_1_3_5 + x_1_4_5 + x_1_5_5 + x_1_6_5
 + x_1_7_5 + x_1_8_5 = 1
_C67: x_0_1_5 + x_1_1_5 + x_2_1_5 + x_3_1_5 + x_4_1_5 + x_5_1_5 + x_6_1_5
 + x_7_1_5 + x_8_1_5 = 1
_C68: x_0_3_5 + x_0_4_5 + x_0_5_5 + x_1_3_5 + x_1_4_5 + x_1_5_5 + x_2_3_5
 + x_2_4_5 + x_2_5_5 = 1
_C69: x_1_0_6 + x_1_1_6 + x_1_2_6 + x_1_3_6 + x_1_4_6 + x_1_5_6 + x_1_6_6
 + x_1_7_6 + x_1_8_6 = 1
_C7: x_0_3_1 + x_0_3_2 + x_0_3_3 + x_0_3_4 + x_0_3_5 + x_0_3_6 + x_0_3_7
 + x_0_3_8 + x_0_3_9 = 1
_C70: x_0_1_6 + x_1_1_6 + x_2_1_6 + x_3_1_6 + x_4_1_6 + x_5_1_6 + x_6_1_6
 + x_7_1_6 + x_8_1_6 = 1
_C71: x_0_3_6 + x_0_4_6 + x_0_5_6 + x_1_3_6 + x_1_4_6 + x_1_5_6 + x_2_3_6
 + x_2_4_6 + x_2_5_6 = 1
_C72: x_1_0_7 + x_1_1_7 + x_1_2_7 + x_1_3_7 + x_1_4_7 + x_1_5_7 + x_1_6_7
 + x_1_7_7 + x_1_8_7 = 1
_C73: x_0_1_7 + x_1_1_7 + x_2_1_7 + x_3_1_7 + x_4_1_7 + x_5_1_7 + x_6_1_7
 + x_7_1_7 + x_8_1_7 = 1
_C74: x_0_3_7 + x_0_4_7 + x_0_5_7 + x_1_3_7 + x_1_4_7 + x_1_5_7 + x_2_3_7
 + x_2_4_7 + x_2_5_7 = 1
_C75: x_1_0_8 + x_1_1_8 + x_1_2_8 + x_1_3_8 + x_1_4_8 + x_1_5_8 + x_1_6_8
 + x_1_7_8 + x_1_8_8 = 1
_C76: x_0_1_8 + x_1_1_8 + x_2_1_8 + x_3_1_8 + x_4_1_8 + x_5_1_8 + x_6_1_8
 + x_7_1_8 + x_8_1_8 = 1
_C77: x_0_3_8 + x_0_4_8 + x_0_5_8 + x_1_3_8 + x_1_4_8 + x_1_5_8 + x_2_3_8
 + x_2_4_8 + x_2_5_8 = 1
_C78: x_1_0_9 + x_1_1_9 + x_1_2_9 + x_1_3_9 + x_1_4_9 + x_1_5_9 + x_1_6_9
 + x_1_7_9 + x_1_8_9 = 1
_C79: x_0_1_9 + x_1_1_9 + x_2_1_9 + x_3_1_9 + x_4_1_9 + x_5_1_9 + x_6_1_9
 + x_7_1_9 + x_8_1_9 = 1
_C8: x_0_4_7 = 1
_C80: x_0_3_9 + x_0_4_9 + x_0_5_9 + x_1_3_9 + x_1_4_9 + x_1_5_9 + x_2_3_9
 + x_2_4_9 + x_2_5_9 = 1
_C81: x_2_0_1 + x_2_0_2 + x_2_0_3 + x_2_0_4 + x_2_0_5 + x_2_0_6 + x_2_0_7
 + x_2_0_8 + x_2_0_9 = 1
_C82: x_2_1_9 = 1
_C83: x_2_1_1 + x_2_1_2 + x_2_1_3 + x_2_1_4 + x_2_1_5 + x_2_1_6 + x_2_1_7
 + x_2_1_8 + x_2_1_9 = 1
_C84: x_2_2_8 = 1
_C85: x_2_2_1 + x_2_2_2 + x_2_2_3 + x_2_2_4 + x_2_2_5 + x_2_2_6 + x_2_2_7
 + x_2_2_8 + x_2_2_9 = 1
_C86: x_2_3_1 + x_2_3_2 + x_2_3_3 + x_2_3_4 + x_2_3_5 + x_2_3_6 + x_2_3_7
 + x_2_3_8 + x_2_3_9 = 1
_C87: x_2_4_1 + x_2_4_2 + x_2_4_3 + x_2_4_4 + x_2_4_5 + x_2_4_6 + x_2_4_7
 + x_2_4_8 + x_2_4_9 = 1
_C88: x_2_5_1 + x_2_5_2 + x_2_5_3 + x_2_5_4 + x_2_5_5 + x_2_5_6 + x_2_5_7
 + x_2_5_8 + x_2_5_9 = 1
_C89: x_2_6_1 + x_2_6_2 + x_2_6_3 + x_2_6_4 + x_2_6_5 + x_2_6_6 + x_2_6_7
 + x_2_6_8 + x_2_6_9 = 1
_C9: x_0_4_1 + x_0_4_2 + x_0_4_3 + x_0_4_4 + x_0_4_5 + x_0_4_6 + x_0_4_7
 + x_0_4_8 + x_0_4_9 = 1
_C90: x_2_7_6 = 1
_C91: x_2_7_1 + x_2_7_2 + x_2_7_3 + x_2_7_4 + x_2_7_5 + x_2_7_6 + x_2_7_7
 + x_2_7_8 + x_2_7_9 = 1
_C92: x_2_8_1 + x_2_8_2 + x_2_8_3 + x_2_8_4 + x_2_8_5 + x_2_8_6 + x_2_8_7
 + x_2_8_8 + x_2_8_9 = 1
_C93: x_2_0_1 + x_2_1_1 + x_2_2_1 + x_2_3_1 + x_2_4_1 + x_2_5_1 + x_2_6_1
 + x_2_7_1 + x_2_8_1 = 1
_C94: x_0_2_1 + x_1_2_1 + x_2_2_1 + x_3_2_1 + x_4_2_1 + x_5_2_1 + x_6_2_1
 + x_7_2_1 + x_8_2_1 = 1
_C95: x_0_6_1 + x_0_7_1 + x_0_8_1 + x_1_6_1 + x_1_7_1 + x_1_8_1 + x_2_6_1
 + x_2_7_1 + x_2_8_1 = 1
_C96: x_2_0_2 + x_2_1_2 + x_2_2_2 + x_2_3_2 + x_2_4_2 + x_2_5_2 + x_2_6_2
 + x_2_7_2 + x_2_8_2 = 1
_C97: x_0_2_2 + x_1_2_2 + x_2_2_2 + x_3_2_2 + x_4_2_2 + x_5_2_2 + x_6_2_2
 + x_7_2_2 + x_8_2_2 = 1
_C98: x_0_6_2 + x_0_7_2 + x_0_8_2 + x_1_6_2 + x_1_7_2 + x_1_8_2 + x_2_6_2
 + x_2_7_2 + x_2_8_2 = 1
_C99: x_2_0_3 + x_2_1_3 + x_2_2_3 + x_2_3_3 + x_2_4_3 + x_2_5_3 + x_2_6_3
 + x_2_7_3 + x_2_8_3 = 1
Bounds
 __dummy = 0
Binaries
x_0_0_1
x_0_0_2
x_0_0_3
x_0_0_4
x_0_0_5
x_0_0_6
x_0_0_7
x_0_0_8
x_0_0_9
x_0_1_1
x_0_1_2
x_0_1_3
x_0_1_4
x_0_1_5
x_0_1_6
x_0_1_7
x_0_1_8
x_0_1_9
x_0_2_1
x_0_2_2
x_0_2_3
x_0_2_4
x_0_2_5
x_0_2_6
x_0_2_7
x_0_2_8
x_0_2_9
x_0_3_1
x_0_3_2
x_0_3_3
x_0_3_4
x_0_3_5
x_0_3_6
x_0_3_7
x_0_3_8
x_0_3_9
x_0_4_1
x_0_4_2
x_0_4_3
x_0_4_4
x_0_4_5
x_0_4_6
x_0_4_7
x_0_4_8
x_0_4_9
x_0_5_1
x_0_5_2
x_0_5_3
x_0_5_4
x_0_5_5
x_0_5_6
x_0_5_7
x_0_5_8
x_0_5_9
x_0_6_1
x_0_6_2
x_0_6_3
x_0_6_4
x_0_6_5
x_0_6_6
x_0_6_7
x_0_6_8
x_0_6_9
x_0_7_1
x_0_7_2
x_0_7_3
x_0_7_4
x_0_7_5
x_0_7_6
x_0_7_7
x_0_7_8
x_0_7_9
x_0_8_1
x_0_8_2
x_0_8_3
x_0_8_4
x_0_8_5
x_0_8_6
x_0_8_7
x_0_8_8
x_0_8_9
x_1_0_1
x_1_0_2
x_1_0_3
x_1_0_4
x_1_0_5
x_1_0_6
x_1_0_7
x_1_0_8
x_1_0_9
x_1_1_1
x_1_1_2
x_1_1_3
x_1_1_4
x_1_1_5
x_1_1_6
x_1_1_7
x_1_1_8
x_1_1_9
x_1_2_1
x_1_2_2
x_1_2_3
x_1_2_4
x_1_2_5
x_1_2_6
x_1_2_7
x_1_2_8
x_1_2_9
x_1_3_1
x_1_3_2
x_1_3_3
x_1_3_4
x_1_3_5
x_1_3_6
x_1_3_7
x_1_3_8
x_1_3_9
x_1_4_1
x_1_4_2
x_1_4_3
x_1_4_4
x_1_4_5
x_1_4_6
x_1_4_7
x_1_4_8
x_1_4_9
x_1_5_1
x_1_5_2
x_1_5_3
x_1_5_4
x_1_5_5
x_1_5_6
x_1_5_7
x_1_5_8
x_1_5_9
x_1_6_1
x_1_6_2
x_1_6_3
x_1_6_4
x_1_6_5
x_1_6_6
x_1_6_7
x_1_6_8
x_1_6_9
x_1_7_1
x_1_7_2
x_1_7_3
x_1_7_4
x_1_7_5
x_1_7_6
x_1_7_7
x_1_7_8
x_1_7_9
x_1_8_1
x_1_8_2
x_1_8_3
x_1_8_4
x_1_8_5
x_1_8_6
x_1_8_7
x_1_8_8
x_1_8_9
x_2_0_1
x_2_0_2
x_2_0_3
x_2_0_4
x_2_0_5
x_2_0_6
x_2_0_7
x_2_0_8
x_2_0_9
x_2_1_1
x_2_1_2
x_2_1_3
x_2_1_4
x_2_1_5
x_2_1_6
x_2_1_7
x_2_1_8
x_2_1_9
x_2_2_1
x_2_2_2
x_2_2_3
x_2_2_4
x_2_2_5
x_2_2_6
x_2_2_7
x_2_2_8
x_2_2_9
x_2_3_1
x_2_3_2
x_2_3_3
x_2_3_4
x_2_3_5
x_2_3_6
x_2_3_7
x_2_3_8
x_2_3_9
x_2_4_1
x_2_4_2
x_2_4_3
x_2_4_4
x_2_4_5
x_2_4_6
x_2_4_7
x_2_4_8
x_2_4_9
x_2_5_1
x_2_5_2
x_2_5_3
x_2_5_4
x_2_5_5
x_2_5_6
x_2_5_7
x_2_5_8
x_2_5_9
x_2_6_1
x_2_6_2
x_2_6_3
x_2_6_4
x_2_6_5
x_2_6_6
x_2_6_7
x_2_6_8
x_2_6_9
x_2_7_1
x_2_7_2
x_2_7_3
x_2_7_4
x_2_7_5
x_2_7_6
x_2_7_7
x_2_7_8
x_2_7_9
x_2_8_1
x_2_8_2
x_2_8_3
x_2_8_4
x_2_8_5
x_2_8_6
x_2_8_7
x_2_8_8
x_2_8_9
x_3_0_1
x_3_0_2
x_3_0_3
x_3_0_4
x_3_0_5
x_3_0_6
x_3_0_7
x_3_0_8
x_3_0_9
x_3_1_1
x_3_1_2
x_3_1_3
x_3_1_4
x_3_1_5
x_3_1_6
x_3_1_7
x_3_1_8
x_3_1_9
x_3_2_1
x_3_2_2
x_3_2_3
x_3_2_4
x_3_2_5
x_3_2_6
x_3_2_7
x_3_2_8
x_3_2_9
x_3_3_1
x_3_3_2
x_3_3_3
x_3_3_4
x_3_3_5
x_3_3_6
x_3_3_7
x_3_3_8
x_3_3_9
x_3_4_1
x_3_4_2
x_3_4_3
x_3_4_4
x_3_4_5
x_3_4_6
x_3_4_7
x_3_4_8
x_3_4_9
x_3_5_1
x_3_5_2
x_3_5_3
x_3_5_4
x_3_5_5
x_3_5_6
x_3_5_7
x_3_5_8
x_3_5_9
x_3_6_1
x_3_6_2
x_3_6_3
x_3_6_4
x_3_6_5
x_3_6_6
x_3_6_7
x_3_6_8
x_3_6_9
x_3_7_1
x_3_7_2
x_3_7_3
x_3_7_4
x_3_7_5
x_3_7_6
x_3_7_7
x_3_7_8
x_3_7_9
x_3_8_1
x_3_8_2
x_3_8_3
x_3_8_4
x_3_8_5
x_3_8_6
x_3_8_7
x_3_8_8
x_3_8_9
x_4_0_1
x_4_0_2
x_4_0_3
x_4_0_4
x_4_0_5
x_4_0_6
x_4_0_7
x_4_0_8
x_4_0_9
x_4_1_1
x_4_1_2
x_4_1_3
x_4_1_4
x_4_1_5
x_4_1_6
x_4_1_7
x_4_1_8
x_4_1_9
x_4_2_1
x_4_2_2
x_4_2_3
x_4_2_4
x_4_2_5
x_4_2_6
x_4_2_7
x_4_2_8
x_4_2_9
x_4_3_1
x_4_3_2
x_4_3_3
x_4_3_4
x_4_3_5
x_4_3_6
x_4_3_7
x_4_3_8
x_4_3_9
x_4_4_1
x_4_4_2
x_4_4_3
x_4_4_4
x_4_4_5
x_4_4_6
x_4_4_7
x_4_4_8
x_4_4_9
x_4_5_1
x_4_5_2
x_4_5_3
x_4_5_4
x_4_5_5
x_4_5_6
x_4_5_7
x_4_5_8
x_4_5_9
x_4_6_1
x_4_6_2
x_4_6_3
x_4_6_4
x_4_6_5
x_4_6_6
x_4_6_7
x_4_6_8
x_4_6_9
x_4_7_1
x_4_7_2
x_4_7_3
x_4_7_4
x_4_7_5
x_4_7_6
x_4_7_7
x_4_7_8
x_4_7_9
x_4_8_1
x_4_8_2
x_4_8_3
x_4_8_4
x_4_8_5
x_4_8_6
x_4_8_7
x_4_8_8
x_4_8_9
x_5_0_1
x_5_0_2
x_5_0_3
x_5_0_4
x_5_0_5
x_5_0_6
x_5_0_7
x_5_0_8
x_5_0_9
x_5_1_1
x_5_1_2
x_5_1_3
x_5_1_4
x_5_1_5
x_5_1_6
x_5_1_7
x_5_1_8
x_5_1_9
x_5_2_1
x_5_2_2
x_5_2_3
x_5_2_4
x_5_2_5
x_5_2_6
x_5_2_7
x_5_2_8
x_5_2_9
x_5_3_1
x_5_3_2
x_5_3_3
x_5_3_4
x_5_3_5
x_5_3_6
x_5_3_7
x_5_3_8
x_5_3_9
x_5_4_1
x_5_4_2
x_5_4_3
x_5_4_4
x_5_4_5
x_5_4_6
x_5_4_7
x_5_4_8
x_5_4_9
x_5_5_1
x_5_5_2
x_5_5_3
x_5_5_4
x_5_5_5
x_5_5_6
x_5_5_7
x_5_5_8
x_5_5_9
x_5_6_1
x_5_6_2
x_5_6_3
x_5_6_4
x_5_6_5
x_5_6_6
x_5_6_7
x_5_6_8
x_5_6_9
x_5_7_1
x_5_7_2
x_5_7_3
x_5_7_4
x_5_7_5
x_5_7_6
x_5_7_7
x_5_7_8
x_5_7_9
x_5_8_1
x_5_8_2
x_5_8_3
x_5_8_4
x_5_8_5
x_5_8_6
x_5_8_7
x_5_8_8
x_5_8_9
x_6_0_1
x_6_0_2
x_6_0_3
x_6_0_4
x_6_0_5
x_6_0_6
x_6_0_7
x_6_0_8
x_6_0_9
x_6_1_1
x_6_1_2
x_6_1_3
x_6_1_4
x_6_1_5
x_6_1_6
x_6_1_7
x_6_1_8
x_6_1_9
x_6_2_1
x_6_2_2
x_6_2_3
x_6_2_4
x_6_2_5
x_6_2_6
x_6_2_7
x_6_2_8
x_6_2_9
x_6_3_1
x_6_3_2
x_6_3_3
x_6_3_4
x_6_3_5
x_6_3_6
x_6_3_7
x_6_3_8
x_6_3_9
x_6_4_1
x_6_4_2
x_6_4_3
x_6_4_4
x_6_4_5
x_6_4_6
x_6_4_7
x_6_4_8
x_6_4_9
x_6_5_1
x_6_5_2
x_6_5_3
x_6_5_4
x_6_5_5
x_6_5_6
x_6_5_7
x_6_5_8
x_6_5_9
x_6_6_1
x_6_6_2
x_6_6_3
x_6_6_4
x_6_6_5
x_6_6_6
x_6_6_7
x_6_6_8
x_6_6_9
x_6_7_1
x_6_7_2
x_6_7_3
x_6_7_4
x_6_7_5
x_6_7_6
x_6_7_7
x_6_7_8
x_6_7_9
x_6_8_1
x_6_8_2
x_6_8_3
x_6_8_4
x_6_8_5
x_6_8_6
x_6_8_7
x_6_8_8
x_6_8_9
x_7_0_1
x_7_0_2
x_7_0_3
x_7_0_4
x_7_0_5
x_7_0_6
x_7_0_7
x_7_0_8
x_7_0_9
x_7_1_1
x_7_1_2
x_7_1_3
x_7_1_4
x_7_1_5
x_7_1_6
x_7_1_7
x_7_1_8
x_7_1_9
x_7_2_1
x_7_2_2
x_7_2_3
x_7_2_4
x_7_2_5
x_7_2_6
x_7_2_7
x_7_2_8
x_7_2_9
x_7_3_1
x_7_3_2
x_7_3_3
x_7_3_4
x_7_3_5
x_7_3_6
x_7_3_7
x_7_3_8
x_7_3_9
x_7_4_1
x_7_4_2
x_7_4_3
x_7_4_4
x_7_4_5
x_7_4_6
x_7_4_7
x_7_4_8
x_7_4_9
x_7_5_1
x_7_5_2
x_7_5_3
x_7_5_4
x_7_5_5
x_7_5_6
x_7_5_7
x_7_5_8
x_7_5_9
x_7_6_1
x_7_6_2
x_7_6_3
x_7_6_4
x_7_6_5
x_7_6_6
x_7_6_7
x_7_6_8
x_7_6_9
x_7_7_1
x_7_7_2
x_7_7_3
x_7_7_4
x_7_7_5
x_7_7_6
x_7_7_7
x_7_7_8
x_7_7_9
x_7_8_1
x_7_8_2
x_7_8_3
x_7_8_4
x_7_8_5
x_7_8_6
x_7_8_7
x_7_8_8
x_7_8_9
x_8_0_1
x_8_0_2
x_8_0_3
x_8_0_4
x_8_0_5
x_8_0_6
x_8_0_7
x_8_0_8
x_8_0_9
x_8_1_1
x_8_1_2
x_8_1_3
x_8_1_4
x_8_1_5
x_8_1_6
x_8_1_7
x_8_1_8
x_8_1_9
x_8_2_1
x_8_2_2
x_8_2_3
x_8_2_4
x_8_2_5
x_8_2_6
x_8_2_7
x_8_2_8
x_8_2_9
x_8_3_1
x_8_3_2
x_8_3_3
x_8_3_4
x_8_3_5
x_8_3_6
x_8_3_7
x_8_3_8
x_8_3_9
x_8_4_1
x_8_4_2
x_8_4_3
x_8_4_4
x_8_4_5
x_8_4_6
x_8_4_7
x_8_4_8
x_8_4_9
x_8_5_1
x_8_5_2
x_8_5_3
x_8_5_4
x_8_5_5
x_8_5_6
x_8_5_7
x_8_5_8
x_8_5_9
x_8_6_1
x_8_6_2
x_8_6_3
x_8_6_4
x_8_6_5
x_8_6_6
x_8_6_7
x_8_6_8
x_8_6_9
x_8_7_1
x_8_7_2
x_8_7_3
x_8_7_4
x_8_7_5
x_8_7_6
x_8_7_7
x_8_7_8
x_8_7_9
x_8_8_1
x_8_8_2
x_8_8_3
x_8_8_4
x_8_8_5
x_8_8_6
x_8_8_7
x_8_8_8
x_8_8_9
End
